c This file is generated by v2cnfMtr
c Generated on Mon Nov  9 17:03:56 2015
p cnf 563 1464
-1 -3 -17 0
1 17 0
3 17 0
-3 -4 -14 0
3 14 0
4 14 0
-2 -33 -16 0
2 16 0
33 16 0
-5 -33 -15 0
5 15 0
33 15 0
-20 -16 -12 0
20 12 0
16 12 0
-15 -15 -13 0
15 13 0
15 13 0
6 18 0
-6 -18 0
7 19 0
-7 -19 0
-1 -18 21 0
1 -21 0
18 -21 0
-17 -6 22 0
17 -22 0
6 -22 0
-4 -18 23 0
4 -23 0
18 -23 0
-17 -6 24 0
17 -24 0
6 -24 0
-21 -19 25 0
21 -25 0
19 -25 0
-22 -7 26 0
22 -26 0
7 -26 0
-23 -19 27 0
23 -27 0
19 -27 0
-24 -7 28 0
24 -28 0
7 -28 0
25 26 -29 0
-25 29 0
-26 29 0
27 29 -30 0
-27 30 0
-29 30 0
30 28 -20 0
-30 20 0
-28 20 0
8 31 0
-8 -31 0
9 32 0
-9 -32 0
-1 -31 34 0
1 -34 0
31 -34 0
-14 -8 35 0
14 -35 0
8 -35 0
-4 -31 36 0
4 -36 0
31 -36 0
-14 -8 37 0
14 -37 0
8 -37 0
-34 -32 38 0
34 -38 0
32 -38 0
-35 -9 39 0
35 -39 0
9 -39 0
-36 -32 40 0
36 -40 0
32 -40 0
-37 -9 41 0
37 -41 0
9 -41 0
38 39 -42 0
-38 42 0
-39 42 0
40 42 -43 0
-40 43 0
-42 43 0
43 41 -33 0
-43 33 0
-41 33 0
10 44 0
-10 -44 0
11 45 0
-11 -45 0
-1 -44 47 0
1 -47 0
44 -47 0
-14 -10 48 0
14 -48 0
10 -48 0
-4 -44 49 0
4 -49 0
44 -49 0
-14 -10 50 0
14 -50 0
10 -50 0
-47 -45 51 0
47 -51 0
45 -51 0
-48 -11 52 0
48 -52 0
11 -52 0
-49 -45 53 0
49 -53 0
45 -53 0
-50 -11 54 0
50 -54 0
11 -54 0
51 52 -55 0
-51 55 0
-52 55 0
53 55 -56 0
-53 56 0
-55 56 0
56 54 -46 0
-56 46 0
-54 46 0
c The second circuit:
-57 -59 -73 0
57 73 0
59 73 0
-59 -60 -70 0
59 70 0
60 70 0
-58 -89 -72 0
58 72 0
89 72 0
-61 -89 -71 0
61 71 0
89 71 0
-76 -72 -68 0
76 68 0
72 68 0
-71 -71 -69 0
71 69 0
71 69 0
62 74 0
-62 -74 0
63 75 0
-63 -75 0
-57 -74 77 0
57 -77 0
74 -77 0
-73 -62 78 0
73 -78 0
62 -78 0
-60 -74 79 0
60 -79 0
74 -79 0
-73 -62 80 0
73 -80 0
62 -80 0
-77 -75 81 0
77 -81 0
75 -81 0
-78 -63 82 0
78 -82 0
63 -82 0
-79 -75 83 0
79 -83 0
75 -83 0
-80 -63 84 0
80 -84 0
63 -84 0
81 82 -85 0
-81 85 0
-82 85 0
83 85 -86 0
-83 86 0
-85 86 0
86 84 -76 0
-86 76 0
-84 76 0
64 87 0
-64 -87 0
65 88 0
-65 -88 0
-57 -87 90 0
57 -90 0
87 -90 0
-70 -64 91 0
70 -91 0
64 -91 0
-60 -87 92 0
60 -92 0
87 -92 0
-70 -64 93 0
70 -93 0
64 -93 0
-90 -88 94 0
90 -94 0
88 -94 0
-91 -65 95 0
91 -95 0
65 -95 0
-92 -88 96 0
92 -96 0
88 -96 0
-93 -65 97 0
93 -97 0
65 -97 0
94 95 -98 0
-94 98 0
-95 98 0
96 98 -99 0
-96 99 0
-98 99 0
99 97 -89 0
-99 89 0
-97 89 0
66 100 0
-66 -100 0
67 101 0
-67 -101 0
-57 -100 103 0
57 -103 0
100 -103 0
-70 -66 104 0
70 -104 0
66 -104 0
-60 -100 105 0
60 -105 0
100 -105 0
-70 -66 106 0
70 -106 0
66 -106 0
-103 -101 107 0
103 -107 0
101 -107 0
-104 -67 108 0
104 -108 0
67 -108 0
-105 -101 109 0
105 -109 0
101 -109 0
-106 -67 110 0
106 -110 0
67 -110 0
107 108 -111 0
-107 111 0
-108 111 0
109 111 -112 0
-109 112 0
-111 112 0
112 110 -102 0
-112 102 0
-110 102 0
c Force PIs of 2 ckts to be the same:
1 -57 0
-1 57 0
2 -58 0
-2 58 0
3 -59 0
-3 59 0
4 -60 0
-4 60 0
5 -61 0
-5 61 0
c XOR outputs of 2 ckts:
-12 -68 -113 0
12 68 -113 0
12 -68 113 0
-12 68 113 0
-13 -69 -114 0
13 69 -114 0
13 -69 114 0
-13 69 114 0
c The last OR gate of the miter:
113 114 -115 0
-113 115 0
-114 115 0
115 0
c New ckt:
-116 -118 -132 0
116 132 0
118 132 0
-118 -119 -129 0
118 129 0
119 129 0
-117 -148 -131 0
117 131 0
148 131 0
-120 -148 -130 0
120 130 0
148 130 0
-135 -131 -127 0
135 127 0
131 127 0
-130 -130 -128 0
130 128 0
130 128 0
121 133 0
-121 -133 0
122 134 0
-122 -134 0
-116 -133 136 0
116 -136 0
133 -136 0
-132 -121 137 0
132 -137 0
121 -137 0
-119 -133 138 0
119 -138 0
133 -138 0
-132 -121 139 0
132 -139 0
121 -139 0
-136 -134 140 0
136 -140 0
134 -140 0
-137 -122 141 0
137 -141 0
122 -141 0
-138 -134 142 0
138 -142 0
134 -142 0
-139 -122 143 0
139 -143 0
122 -143 0
140 141 -144 0
-140 144 0
-141 144 0
142 144 -145 0
-142 145 0
-144 145 0
145 143 -135 0
-145 135 0
-143 135 0
123 146 0
-123 -146 0
124 147 0
-124 -147 0
-116 -146 149 0
116 -149 0
146 -149 0
-129 -123 150 0
129 -150 0
123 -150 0
-119 -146 151 0
119 -151 0
146 -151 0
-129 -123 152 0
129 -152 0
123 -152 0
-149 -147 153 0
149 -153 0
147 -153 0
-150 -124 154 0
150 -154 0
124 -154 0
-151 -147 155 0
151 -155 0
147 -155 0
-152 -124 156 0
152 -156 0
124 -156 0
153 154 -157 0
-153 157 0
-154 157 0
155 157 -158 0
-155 158 0
-157 158 0
158 156 -148 0
-158 148 0
-156 148 0
125 159 0
-125 -159 0
126 160 0
-126 -160 0
-116 -159 162 0
116 -162 0
159 -162 0
-129 -125 163 0
129 -163 0
125 -163 0
-119 -159 164 0
119 -164 0
159 -164 0
-129 -125 165 0
129 -165 0
125 -165 0
-162 -160 166 0
162 -166 0
160 -166 0
-163 -126 167 0
163 -167 0
126 -167 0
-164 -160 168 0
164 -168 0
160 -168 0
-165 -126 169 0
165 -169 0
126 -169 0
166 167 -170 0
-166 170 0
-167 170 0
168 170 -171 0
-168 171 0
-170 171 0
171 169 -161 0
-171 161 0
-169 161 0
6 -121 0
-6 121 0
7 -122 0
-7 122 0
8 -123 0
-8 123 0
9 -124 0
-9 124 0
10 -125 0
-10 125 0
11 -126 0
-11 126 0
-116 0
-117 0
118 0
119 0
-120 0
-127 0
-128 0
c New ckt:
-172 -174 -188 0
172 188 0
174 188 0
-174 -175 -185 0
174 185 0
175 185 0
-173 -204 -187 0
173 187 0
204 187 0
-176 -204 -186 0
176 186 0
204 186 0
-191 -187 -183 0
191 183 0
187 183 0
-186 -186 -184 0
186 184 0
186 184 0
177 189 0
-177 -189 0
178 190 0
-178 -190 0
-172 -189 192 0
172 -192 0
189 -192 0
-188 -177 193 0
188 -193 0
177 -193 0
-175 -189 194 0
175 -194 0
189 -194 0
-188 -177 195 0
188 -195 0
177 -195 0
-192 -190 196 0
192 -196 0
190 -196 0
-193 -178 197 0
193 -197 0
178 -197 0
-194 -190 198 0
194 -198 0
190 -198 0
-195 -178 199 0
195 -199 0
178 -199 0
196 197 -200 0
-196 200 0
-197 200 0
198 200 -201 0
-198 201 0
-200 201 0
201 199 -191 0
-201 191 0
-199 191 0
179 202 0
-179 -202 0
180 203 0
-180 -203 0
-172 -202 205 0
172 -205 0
202 -205 0
-185 -179 206 0
185 -206 0
179 -206 0
-175 -202 207 0
175 -207 0
202 -207 0
-185 -179 208 0
185 -208 0
179 -208 0
-205 -203 209 0
205 -209 0
203 -209 0
-206 -180 210 0
206 -210 0
180 -210 0
-207 -203 211 0
207 -211 0
203 -211 0
-208 -180 212 0
208 -212 0
180 -212 0
209 210 -213 0
-209 213 0
-210 213 0
211 213 -214 0
-211 214 0
-213 214 0
214 212 -204 0
-214 204 0
-212 204 0
181 215 0
-181 -215 0
182 216 0
-182 -216 0
-172 -215 218 0
172 -218 0
215 -218 0
-185 -181 219 0
185 -219 0
181 -219 0
-175 -215 220 0
175 -220 0
215 -220 0
-185 -181 221 0
185 -221 0
181 -221 0
-218 -216 222 0
218 -222 0
216 -222 0
-219 -182 223 0
219 -223 0
182 -223 0
-220 -216 224 0
220 -224 0
216 -224 0
-221 -182 225 0
221 -225 0
182 -225 0
222 223 -226 0
-222 226 0
-223 226 0
224 226 -227 0
-224 227 0
-226 227 0
227 225 -217 0
-227 217 0
-225 217 0
62 -177 0
-62 177 0
63 -178 0
-63 178 0
64 -179 0
-64 179 0
65 -180 0
-65 180 0
66 -181 0
-66 181 0
67 -182 0
-67 182 0
-172 0
-173 0
174 0
175 0
-176 0
-183 0
-184 0
c New ckt:
-228 -230 -244 0
228 244 0
230 244 0
-230 -231 -241 0
230 241 0
231 241 0
-229 -260 -243 0
229 243 0
260 243 0
-232 -260 -242 0
232 242 0
260 242 0
-247 -243 -239 0
247 239 0
243 239 0
-242 -242 -240 0
242 240 0
242 240 0
233 245 0
-233 -245 0
234 246 0
-234 -246 0
-228 -245 248 0
228 -248 0
245 -248 0
-244 -233 249 0
244 -249 0
233 -249 0
-231 -245 250 0
231 -250 0
245 -250 0
-244 -233 251 0
244 -251 0
233 -251 0
-248 -246 252 0
248 -252 0
246 -252 0
-249 -234 253 0
249 -253 0
234 -253 0
-250 -246 254 0
250 -254 0
246 -254 0
-251 -234 255 0
251 -255 0
234 -255 0
252 253 -256 0
-252 256 0
-253 256 0
254 256 -257 0
-254 257 0
-256 257 0
257 255 -247 0
-257 247 0
-255 247 0
235 258 0
-235 -258 0
236 259 0
-236 -259 0
-228 -258 261 0
228 -261 0
258 -261 0
-241 -235 262 0
241 -262 0
235 -262 0
-231 -258 263 0
231 -263 0
258 -263 0
-241 -235 264 0
241 -264 0
235 -264 0
-261 -259 265 0
261 -265 0
259 -265 0
-262 -236 266 0
262 -266 0
236 -266 0
-263 -259 267 0
263 -267 0
259 -267 0
-264 -236 268 0
264 -268 0
236 -268 0
265 266 -269 0
-265 269 0
-266 269 0
267 269 -270 0
-267 270 0
-269 270 0
270 268 -260 0
-270 260 0
-268 260 0
237 271 0
-237 -271 0
238 272 0
-238 -272 0
-228 -271 274 0
228 -274 0
271 -274 0
-241 -237 275 0
241 -275 0
237 -275 0
-231 -271 276 0
231 -276 0
271 -276 0
-241 -237 277 0
241 -277 0
237 -277 0
-274 -272 278 0
274 -278 0
272 -278 0
-275 -238 279 0
275 -279 0
238 -279 0
-276 -272 280 0
276 -280 0
272 -280 0
-277 -238 281 0
277 -281 0
238 -281 0
278 279 -282 0
-278 282 0
-279 282 0
280 282 -283 0
-280 283 0
-282 283 0
283 281 -273 0
-283 273 0
-281 273 0
6 -233 0
-6 233 0
7 -234 0
-7 234 0
8 -235 0
-8 235 0
9 -236 0
-9 236 0
10 -237 0
-10 237 0
11 -238 0
-11 238 0
-228 0
229 0
230 0
231 0
-232 0
-239 0
-240 0
c New ckt:
-284 -286 -300 0
284 300 0
286 300 0
-286 -287 -297 0
286 297 0
287 297 0
-285 -316 -299 0
285 299 0
316 299 0
-288 -316 -298 0
288 298 0
316 298 0
-303 -299 -295 0
303 295 0
299 295 0
-298 -298 -296 0
298 296 0
298 296 0
289 301 0
-289 -301 0
290 302 0
-290 -302 0
-284 -301 304 0
284 -304 0
301 -304 0
-300 -289 305 0
300 -305 0
289 -305 0
-287 -301 306 0
287 -306 0
301 -306 0
-300 -289 307 0
300 -307 0
289 -307 0
-304 -302 308 0
304 -308 0
302 -308 0
-305 -290 309 0
305 -309 0
290 -309 0
-306 -302 310 0
306 -310 0
302 -310 0
-307 -290 311 0
307 -311 0
290 -311 0
308 309 -312 0
-308 312 0
-309 312 0
310 312 -313 0
-310 313 0
-312 313 0
313 311 -303 0
-313 303 0
-311 303 0
291 314 0
-291 -314 0
292 315 0
-292 -315 0
-284 -314 317 0
284 -317 0
314 -317 0
-297 -291 318 0
297 -318 0
291 -318 0
-287 -314 319 0
287 -319 0
314 -319 0
-297 -291 320 0
297 -320 0
291 -320 0
-317 -315 321 0
317 -321 0
315 -321 0
-318 -292 322 0
318 -322 0
292 -322 0
-319 -315 323 0
319 -323 0
315 -323 0
-320 -292 324 0
320 -324 0
292 -324 0
321 322 -325 0
-321 325 0
-322 325 0
323 325 -326 0
-323 326 0
-325 326 0
326 324 -316 0
-326 316 0
-324 316 0
293 327 0
-293 -327 0
294 328 0
-294 -328 0
-284 -327 330 0
284 -330 0
327 -330 0
-297 -293 331 0
297 -331 0
293 -331 0
-287 -327 332 0
287 -332 0
327 -332 0
-297 -293 333 0
297 -333 0
293 -333 0
-330 -328 334 0
330 -334 0
328 -334 0
-331 -294 335 0
331 -335 0
294 -335 0
-332 -328 336 0
332 -336 0
328 -336 0
-333 -294 337 0
333 -337 0
294 -337 0
334 335 -338 0
-334 338 0
-335 338 0
336 338 -339 0
-336 339 0
-338 339 0
339 337 -329 0
-339 329 0
-337 329 0
62 -289 0
-62 289 0
63 -290 0
-63 290 0
64 -291 0
-64 291 0
65 -292 0
-65 292 0
66 -293 0
-66 293 0
67 -294 0
-67 294 0
-284 0
285 0
286 0
287 0
-288 0
-295 0
-296 0
c New ckt:
-340 -342 -356 0
340 356 0
342 356 0
-342 -343 -353 0
342 353 0
343 353 0
-341 -372 -355 0
341 355 0
372 355 0
-344 -372 -354 0
344 354 0
372 354 0
-359 -355 -351 0
359 351 0
355 351 0
-354 -354 -352 0
354 352 0
354 352 0
345 357 0
-345 -357 0
346 358 0
-346 -358 0
-340 -357 360 0
340 -360 0
357 -360 0
-356 -345 361 0
356 -361 0
345 -361 0
-343 -357 362 0
343 -362 0
357 -362 0
-356 -345 363 0
356 -363 0
345 -363 0
-360 -358 364 0
360 -364 0
358 -364 0
-361 -346 365 0
361 -365 0
346 -365 0
-362 -358 366 0
362 -366 0
358 -366 0
-363 -346 367 0
363 -367 0
346 -367 0
364 365 -368 0
-364 368 0
-365 368 0
366 368 -369 0
-366 369 0
-368 369 0
369 367 -359 0
-369 359 0
-367 359 0
347 370 0
-347 -370 0
348 371 0
-348 -371 0
-340 -370 373 0
340 -373 0
370 -373 0
-353 -347 374 0
353 -374 0
347 -374 0
-343 -370 375 0
343 -375 0
370 -375 0
-353 -347 376 0
353 -376 0
347 -376 0
-373 -371 377 0
373 -377 0
371 -377 0
-374 -348 378 0
374 -378 0
348 -378 0
-375 -371 379 0
375 -379 0
371 -379 0
-376 -348 380 0
376 -380 0
348 -380 0
377 378 -381 0
-377 381 0
-378 381 0
379 381 -382 0
-379 382 0
-381 382 0
382 380 -372 0
-382 372 0
-380 372 0
349 383 0
-349 -383 0
350 384 0
-350 -384 0
-340 -383 386 0
340 -386 0
383 -386 0
-353 -349 387 0
353 -387 0
349 -387 0
-343 -383 388 0
343 -388 0
383 -388 0
-353 -349 389 0
353 -389 0
349 -389 0
-386 -384 390 0
386 -390 0
384 -390 0
-387 -350 391 0
387 -391 0
350 -391 0
-388 -384 392 0
388 -392 0
384 -392 0
-389 -350 393 0
389 -393 0
350 -393 0
390 391 -394 0
-390 394 0
-391 394 0
392 394 -395 0
-392 395 0
-394 395 0
395 393 -385 0
-395 385 0
-393 385 0
6 -345 0
-6 345 0
7 -346 0
-7 346 0
8 -347 0
-8 347 0
9 -348 0
-9 348 0
10 -349 0
-10 349 0
11 -350 0
-11 350 0
-340 0
341 0
-342 0
-343 0
344 0
351 0
352 0
c New ckt:
-396 -398 -412 0
396 412 0
398 412 0
-398 -399 -409 0
398 409 0
399 409 0
-397 -428 -411 0
397 411 0
428 411 0
-400 -428 -410 0
400 410 0
428 410 0
-415 -411 -407 0
415 407 0
411 407 0
-410 -410 -408 0
410 408 0
410 408 0
401 413 0
-401 -413 0
402 414 0
-402 -414 0
-396 -413 416 0
396 -416 0
413 -416 0
-412 -401 417 0
412 -417 0
401 -417 0
-399 -413 418 0
399 -418 0
413 -418 0
-412 -401 419 0
412 -419 0
401 -419 0
-416 -414 420 0
416 -420 0
414 -420 0
-417 -402 421 0
417 -421 0
402 -421 0
-418 -414 422 0
418 -422 0
414 -422 0
-419 -402 423 0
419 -423 0
402 -423 0
420 421 -424 0
-420 424 0
-421 424 0
422 424 -425 0
-422 425 0
-424 425 0
425 423 -415 0
-425 415 0
-423 415 0
403 426 0
-403 -426 0
404 427 0
-404 -427 0
-396 -426 429 0
396 -429 0
426 -429 0
-409 -403 430 0
409 -430 0
403 -430 0
-399 -426 431 0
399 -431 0
426 -431 0
-409 -403 432 0
409 -432 0
403 -432 0
-429 -427 433 0
429 -433 0
427 -433 0
-430 -404 434 0
430 -434 0
404 -434 0
-431 -427 435 0
431 -435 0
427 -435 0
-432 -404 436 0
432 -436 0
404 -436 0
433 434 -437 0
-433 437 0
-434 437 0
435 437 -438 0
-435 438 0
-437 438 0
438 436 -428 0
-438 428 0
-436 428 0
405 439 0
-405 -439 0
406 440 0
-406 -440 0
-396 -439 442 0
396 -442 0
439 -442 0
-409 -405 443 0
409 -443 0
405 -443 0
-399 -439 444 0
399 -444 0
439 -444 0
-409 -405 445 0
409 -445 0
405 -445 0
-442 -440 446 0
442 -446 0
440 -446 0
-443 -406 447 0
443 -447 0
406 -447 0
-444 -440 448 0
444 -448 0
440 -448 0
-445 -406 449 0
445 -449 0
406 -449 0
446 447 -450 0
-446 450 0
-447 450 0
448 450 -451 0
-448 451 0
-450 451 0
451 449 -441 0
-451 441 0
-449 441 0
62 -401 0
-62 401 0
63 -402 0
-63 402 0
64 -403 0
-64 403 0
65 -404 0
-65 404 0
66 -405 0
-66 405 0
67 -406 0
-67 406 0
-396 0
397 0
-398 0
-399 0
400 0
407 0
408 0
c New ckt:
-452 -454 -468 0
452 468 0
454 468 0
-454 -455 -465 0
454 465 0
455 465 0
-453 -484 -467 0
453 467 0
484 467 0
-456 -484 -466 0
456 466 0
484 466 0
-471 -467 -463 0
471 463 0
467 463 0
-466 -466 -464 0
466 464 0
466 464 0
457 469 0
-457 -469 0
458 470 0
-458 -470 0
-452 -469 472 0
452 -472 0
469 -472 0
-468 -457 473 0
468 -473 0
457 -473 0
-455 -469 474 0
455 -474 0
469 -474 0
-468 -457 475 0
468 -475 0
457 -475 0
-472 -470 476 0
472 -476 0
470 -476 0
-473 -458 477 0
473 -477 0
458 -477 0
-474 -470 478 0
474 -478 0
470 -478 0
-475 -458 479 0
475 -479 0
458 -479 0
476 477 -480 0
-476 480 0
-477 480 0
478 480 -481 0
-478 481 0
-480 481 0
481 479 -471 0
-481 471 0
-479 471 0
459 482 0
-459 -482 0
460 483 0
-460 -483 0
-452 -482 485 0
452 -485 0
482 -485 0
-465 -459 486 0
465 -486 0
459 -486 0
-455 -482 487 0
455 -487 0
482 -487 0
-465 -459 488 0
465 -488 0
459 -488 0
-485 -483 489 0
485 -489 0
483 -489 0
-486 -460 490 0
486 -490 0
460 -490 0
-487 -483 491 0
487 -491 0
483 -491 0
-488 -460 492 0
488 -492 0
460 -492 0
489 490 -493 0
-489 493 0
-490 493 0
491 493 -494 0
-491 494 0
-493 494 0
494 492 -484 0
-494 484 0
-492 484 0
461 495 0
-461 -495 0
462 496 0
-462 -496 0
-452 -495 498 0
452 -498 0
495 -498 0
-465 -461 499 0
465 -499 0
461 -499 0
-455 -495 500 0
455 -500 0
495 -500 0
-465 -461 501 0
465 -501 0
461 -501 0
-498 -496 502 0
498 -502 0
496 -502 0
-499 -462 503 0
499 -503 0
462 -503 0
-500 -496 504 0
500 -504 0
496 -504 0
-501 -462 505 0
501 -505 0
462 -505 0
502 503 -506 0
-502 506 0
-503 506 0
504 506 -507 0
-504 507 0
-506 507 0
507 505 -497 0
-507 497 0
-505 497 0
6 -457 0
-6 457 0
7 -458 0
-7 458 0
8 -459 0
-8 459 0
9 -460 0
-9 460 0
10 -461 0
-10 461 0
11 -462 0
-11 462 0
-452 0
-453 0
-454 0
-455 0
456 0
-463 0
464 0
c New ckt:
-508 -510 -524 0
508 524 0
510 524 0
-510 -511 -521 0
510 521 0
511 521 0
-509 -540 -523 0
509 523 0
540 523 0
-512 -540 -522 0
512 522 0
540 522 0
-527 -523 -519 0
527 519 0
523 519 0
-522 -522 -520 0
522 520 0
522 520 0
513 525 0
-513 -525 0
514 526 0
-514 -526 0
-508 -525 528 0
508 -528 0
525 -528 0
-524 -513 529 0
524 -529 0
513 -529 0
-511 -525 530 0
511 -530 0
525 -530 0
-524 -513 531 0
524 -531 0
513 -531 0
-528 -526 532 0
528 -532 0
526 -532 0
-529 -514 533 0
529 -533 0
514 -533 0
-530 -526 534 0
530 -534 0
526 -534 0
-531 -514 535 0
531 -535 0
514 -535 0
532 533 -536 0
-532 536 0
-533 536 0
534 536 -537 0
-534 537 0
-536 537 0
537 535 -527 0
-537 527 0
-535 527 0
515 538 0
-515 -538 0
516 539 0
-516 -539 0
-508 -538 541 0
508 -541 0
538 -541 0
-521 -515 542 0
521 -542 0
515 -542 0
-511 -538 543 0
511 -543 0
538 -543 0
-521 -515 544 0
521 -544 0
515 -544 0
-541 -539 545 0
541 -545 0
539 -545 0
-542 -516 546 0
542 -546 0
516 -546 0
-543 -539 547 0
543 -547 0
539 -547 0
-544 -516 548 0
544 -548 0
516 -548 0
545 546 -549 0
-545 549 0
-546 549 0
547 549 -550 0
-547 550 0
-549 550 0
550 548 -540 0
-550 540 0
-548 540 0
517 551 0
-517 -551 0
518 552 0
-518 -552 0
-508 -551 554 0
508 -554 0
551 -554 0
-521 -517 555 0
521 -555 0
517 -555 0
-511 -551 556 0
511 -556 0
551 -556 0
-521 -517 557 0
521 -557 0
517 -557 0
-554 -552 558 0
554 -558 0
552 -558 0
-555 -518 559 0
555 -559 0
518 -559 0
-556 -552 560 0
556 -560 0
552 -560 0
-557 -518 561 0
557 -561 0
518 -561 0
558 559 -562 0
-558 562 0
-559 562 0
560 562 -563 0
-560 563 0
-562 563 0
563 561 -553 0
-563 553 0
-561 553 0
62 -513 0
-62 513 0
63 -514 0
-63 514 0
64 -515 0
-64 515 0
65 -516 0
-65 516 0
66 -517 0
-66 517 0
67 -518 0
-67 518 0
-508 0
-509 0
-510 0
-511 0
512 0
-519 0
520 0
